
# MODEL PARAMETERS
param P    := 70.0  ;
param K    := 10.0  ;
param vf   := 15.0  ;
param TMAX :=  6.0  ;
param L    :=  4.0  ;
param eps  :=  0.001;

# Rush-hour period
param M0   := -25.55  ;
param Mbar := 43.57  ;

# EXPONENTIAL UTILITY FUNCTION
# --> LOG
param A0 :=  5.0;
param a1 :=  0.3333;
param B0 := 10.0;
param b1 :=  0.5;

# SIZE OF THE APPROXIMATION GRID
# NUMBER OF POINTS WITHIN AN INTERVAL
# OF LENGTH L : q0 
param q0 := 20;  

